4 
5  57 
6  12 27 46 53 
7  01 08 16 23 31 38 46 53 
8  01 08 16 23 31 38 46 53 
9  01 08 16 23 38 53 
10  08 23 38 53 
11  08 23 38 53 
12  08 23 38 53 
13  10 25 40 55 
14  10 25 40 55 
15  10 17 25 33 40 48 55 
16  03 10 18 25 33 40 48 55 
17  03 10 18 25 33 40 48 55 
18  03 10 18 25 33 40 47 55 
19  09 23 38 53 
20  08 23 38 53 
21  05 20 35 50 
22  05 20 35 48 
23  03 19 34 
0 
